unsat
(:cnf-encoding-aux-vars   3
 :eliminated-applications 3
 :eliminated-vars         29
 :max-memory              18.21
 :memory                  18.00
 :nlsat-conflicts         9
 :nlsat-decisions         9
 :nlsat-learned-added     8
 :nlsat-propagations      32
 :nlsat-stages            5
 :num-allocs              8657
 :rlimit-count            11557
 :time                    0.00
 :total-time              0.01)
